(set-logic HORN)
(set-info :source |
  Benchmark: test_safe_2019/termination/Ackermann.7.ml
  Generated by MoCHi
|)
(set-info :status unknown)
(declare-fun |fail_12614[178:0]| ( Int) Bool)
(declare-fun |ack_without_checking_92[164:7]| ( Bool  Int  Int  Int  Bool  Int  Int  Int) Bool)
(declare-fun |ack_without_checking_92[143:8][156:0]| ( Bool  Int  Int  Int  Bool  Int  Int  Int  Int) Bool)
(declare-fun |ack_without_checking_92[149:8][152:0]| ( Bool  Int  Int  Int  Bool  Int  Int  Int  Int) Bool)
(declare-fun |ack_without_checking_92[149:7]| ( Bool  Int  Int  Int  Bool  Int  Int  Int) Bool)
(declare-fun |ack_without_checking_92[143:7]| ( Bool  Int  Int  Int  Bool  Int  Int  Int) Bool)
(declare-fun |ack_without_checking_92[123:7]| ( Bool  Int  Int  Int  Bool  Int  Int  Int) Bool)
(assert (not (exists ((x0 Int)) (|fail_12614[178:0]| x0))))
(assert (forall ((x0 Int)(x8 Int)(x4 Int)(var357 Bool)(var358 Int)(var359 Int)(var360 Bool)(var361 Int)(var362 Int)) (=> (and (|ack_without_checking_92[164:7]| var357 var358 var359 x4 var360 var361 var362 x8) (and (<= (+ 1 x8) 0) (not (= x4 0)))) (|fail_12614[178:0]| x0))))
(assert (forall ((x3 Bool)(x5 Int)(x6 Int)(x0 Int)(x4 Bool)(x2 Int)(x1 Int)(x13 Int)(var363 Int)(x11 Bool)(x10 Int)(x9 Int)(x8 Bool)(x7 Int)(x12 Int)) (=> (and (|ack_without_checking_92[143:8][156:0]| true x5 x6 x5 true x5 x6 var363 x13) (and (|ack_without_checking_92[123:7]| x11 x10 x9 x5 x8 x7 x12 x6) (and (= (+ 1 x0) x5) (and (= (+ 1 var363) x6) (and (>= var363 0) (and (not (= x6 0)) (and (not (= x5 0)) (and (= x6 x1) (and (= x5 x2) (and x3 x4)))))))))) (|ack_without_checking_92[164:7]| x3 x5 x6 x0 x4 x2 x1 x13))))
(assert (forall ((x1 Bool)(x2 Int)(x3 Int)(x4 Int)(x5 Bool)(x6 Int)(x7 Int)(x8 Int)(x9 Int)(var364 Int)) (=> (and (|ack_without_checking_92[149:8][152:0]| true x4 x8 var364 true x4 x8 1 x9) (and (|ack_without_checking_92[143:7]| x1 x2 x3 x4 x5 x6 x7 x8) (and (= x8 0) (and (not (= x4 0)) (= (+ 1 var364) x4))))) (|ack_without_checking_92[143:8][156:0]| x1 x2 x3 x4 x5 x6 x7 x8 x9))))
(assert (forall ((x1 Bool)(x2 Int)(x3 Int)(x4 Int)(x5 Bool)(x6 Int)(x7 Int)(x8 Int)(x0 Int)) (=> (and (|ack_without_checking_92[149:7]| x1 x2 x3 x4 x5 x6 x7 x8) (and (= x4 0) (= x0 (+ 1 x8)))) (|ack_without_checking_92[149:8][152:0]| x1 x2 x3 x4 x5 x6 x7 x8 x0))))
(assert (forall ((x5 Bool)(x9 Int)(x13 Int)(x3 Int)(x4 Bool)(x1 Int)(x2 Int)(x0 Int)(x6 Bool)(x7 Int)(x8 Int)(x10 Bool)(x11 Int)(x12 Int)) (=> (and (|ack_without_checking_92[143:7]| x6 x7 x8 x9 x10 x11 x12 x13) (and (= x0 1) (and (= x13 0) (and (= (+ 1 x3) x9) (and (not (= x9 0)) (and (= x9 x1) (and (= x13 x2) (and x4 x5)))))))) (|ack_without_checking_92[149:7]| x5 x9 x13 x3 x4 x1 x2 x0))))
(assert (forall ((x5 Bool)(x6 Int)(x7 Int)(x0 Int)(x2 Bool)(x3 Int)(x4 Int)(x1 Int)(var365 Bool)(var366 Int)(var367 Int)(var368 Bool)(var369 Int)(var370 Int)) (=> (and (|ack_without_checking_92[123:7]| var365 var366 var367 x6 var368 var369 var370 x7) (and (not (= x7 0)) (and (not (= x6 0)) (and (= (+ 1 x1) x7) (and (= x7 x4) (and (= x3 x0) (and (= x3 x6) (and x5 (and x2 (or (and (>= x3 (+ 1 x0)) (>= x0 0)) (and (>= x3 x0) (and (>= x4 (+ 1 x1)) (>= x1 0))))))))))))) (|ack_without_checking_92[143:7]| x5 x6 x7 x0 x2 x3 x4 x1))))
(assert (forall ((x6 Bool)(x4 Int)(x5 Int)(x3 Int)(x2 Bool)(x1 Int)(x0 Int)(x8 Int)) (=> (and (= x4 0) (and (= x5 0) (and (>= x8 1) (and (>= x3 1) (and (= x5 x0) (and (= x4 x1) (and (not x6) (not x2)))))))) (|ack_without_checking_92[123:7]| x6 x4 x5 x3 x2 x1 x0 x8))))
(check-sat)
(get-model)
(exit)
